Geographic Exponential Decay
80 106 315 188 195 140 253 183 47 203 105 162 186 120 40 255 86 56 126 24 82 221 109 52 117 228 205 115 155 208 14 25 291 209 174 293 29 127 133 280 27 318 98 18 260 159 34 220 85 9 35 60 169 113 165 249 262 4 46 110 141 45 65 199 77 246 292 41 21 216 26 94 167 245 12 306 6 284 61 146 30
p edge 320 321
e 0 217 7.0
e 1 176 2.0
e 1 0 6.0
e 2 265 1.0
e 2 1 1.0
e 3 316 2.0
e 3 2 1.0
e 4 164 97.0
e 4 293 16.0
e 4 287 88.0
e 4 3 25.0
e 5 185 5.0
e 5 4 9.0
e 6 200 13.0
e 6 70 56.0
e 6 195 12.0
e 6 5 55.0
e 7 131 4.0
e 7 6 64.0
e 8 35 77.0
e 8 7 2.0
e 9 98 24.0
e 9 199 100.0
e 9 149 44.0
e 10 247 5.0
e 10 8 2.0
e 11 284 92.0
e 11 10 3.0
e 12 135 77.0
e 12 260 8.0
e 12 216 22.0
e 12 11 90.0
e 13 171 5.0
e 13 12 66.0
e 14 201 77.0
e 14 35 23.0
e 14 100 69.0
e 15 16 20.0
e 15 13 1.0
e 17 310 2.0
e 17 15 1.0
e 18 253 67.0
e 18 19 71.0
e 18 245 3.0
e 20 68 3.0
e 20 17 3.0
e 21 303 56.0
e 21 218 4.0
e 21 295 68.0
e 21 20 92.0
e 22 28 2.0
e 22 21 21.0
e 23 80 2.0
e 23 22 2.0
e 24 219 43.0
e 24 282 21.0
e 24 62 36.0
e 24 23 87.0
e 25 248 39.0
e 25 87 25.0
e 25 209 43.0
e 25 24 18.0
e 26 206 23.0
e 26 76 74.0
e 26 189 4.0
e 26 25 21.0
e 27 108 76.0
e 27 227 89.0
e 27 29 73.0
e 27 26 23.0
e 29 283 34.0
e 29 172 39.0
e 30 52 56.0
e 30 266 48.0
e 30 42 60.0
e 30 27 53.0
e 31 121 10.0
e 31 63 1.0
e 31 30 87.0
e 32 182 20.0
e 32 31 1.0
e 33 57 1.0
e 33 32 6.0
e 34 101 19.0
e 34 95 80.0
e 34 150 35.0
e 34 33 7.0
e 35 71 91.0
e 36 196 3.0
e 36 34 36.0
e 37 236 10.0
e 37 36 10.0
e 38 39 3.0
e 38 37 6.0
e 40 41 21.0
e 40 198 35.0
e 40 225 97.0
e 41 60 81.0
e 41 88 31.0
e 43 220 92.0
e 44 240 5.0
e 44 38 1.0
e 45 245 47.0
e 45 60 59.0
e 45 187 39.0
e 46 158 52.0
e 46 166 24.0
e 46 177 87.0
e 46 44 80.0
e 47 96 97.0
e 47 237 35.0
e 47 82 77.0
e 48 298 7.0
e 48 46 1.0
e 49 50 1.0
e 49 48 3.0
e 51 52 13.0
e 52 269 10.0
e 53 226 4.0
e 53 49 4.0
e 54 123 1.0
e 54 53 4.0
e 55 56 49.0
e 55 54 1.0
e 56 202 1.0
e 56 207 38.0
e 58 221 72.0
e 58 55 12.0
e 59 60 61.0
e 61 64 8.0
e 61 288 21.0
e 61 146 35.0
e 61 58 97.0
e 65 66 18.0
e 65 242 41.0
e 65 311 31.0
e 65 61 5.0
e 67 221 30.0
e 69 72 4.0
e 69 65 36.0
e 73 152 23.0
e 73 69 12.0
e 74 105 62.0
e 74 151 34.0
e 75 77 47.0
e 75 73 9.0
e 77 181 77.0
e 77 122 32.0
e 78 292 24.0
e 79 238 5.0
e 79 75 2.0
e 81 153 1.0
e 81 79 1.0
e 82 260 11.0
e 82 118 28.0
e 83 89 12.0
e 83 81 2.0
e 84 159 17.0
e 84 83 4.0
e 85 203 23.0
e 85 86 33.0
e 85 98 43.0
e 86 136 62.0
e 86 106 5.0
e 90 203 65.0
e 91 92 1.0
e 91 84 4.0
e 93 203 35.0
e 94 318 10.0
e 94 97 64.0
e 94 98 15.0
e 99 127 19.0
e 99 91 2.0
e 102 183 68.0
e 102 99 2.0
e 103 104 24.0
e 104 159 86.0
e 105 212 4.0
e 105 220 7.0
e 106 161 53.0
e 106 170 72.0
e 107 154 1.0
e 107 102 1.0
e 109 294 65.0
e 109 110 65.0
e 109 178 33.0
e 109 107 100.0
e 110 111 85.0
e 110 197 76.0
e 112 156 4.0
e 112 109 55.0
e 113 286 92.0
e 113 241 11.0
e 113 114 26.0
e 113 112 18.0
e 115 188 12.0
e 115 190 72.0
e 115 262 33.0
e 116 117 15.0
e 117 243 52.0
e 117 188 80.0
e 119 120 4.0
e 119 113 69.0
e 120 124 83.0
e 120 125 6.0
e 126 235 26.0
e 126 317 22.0
e 126 127 89.0
e 127 128 34.0
e 129 130 9.0
e 129 119 1.0
e 132 147 2.0
e 132 129 5.0
e 133 155 20.0
e 133 157 83.0
e 133 307 77.0
e 133 132 58.0
e 134 137 9.0
e 134 133 45.0
e 138 214 9.0
e 138 134 11.0
e 139 296 8.0
e 139 138 1.0
e 140 141 64.0
e 140 142 66.0
e 140 208 36.0
e 141 143 65.0
e 141 159 65.0
e 144 199 46.0
e 145 222 11.0
e 145 139 8.0
e 146 160 30.0
e 146 223 72.0
e 148 155 84.0
e 155 162 64.0
e 162 163 73.0
e 162 184 11.0
e 165 167 78.0
e 165 168 64.0
e 165 195 66.0
e 167 213 69.0
e 167 169 86.0
e 169 173 80.0
e 169 174 1.0
e 174 175 57.0
e 174 179 32.0
e 180 183 85.0
e 183 186 1.0
e 186 262 90.0
e 186 188 7.0
e 191 208 20.0
e 192 312 10.0
e 192 145 1.0
e 193 194 1.0
e 193 192 2.0
e 195 199 98.0
e 204 205 1.0
e 205 208 30.0
e 205 279 5.0
e 209 289 50.0
e 209 267 37.0
e 210 211 3.0
e 210 193 2.0
e 215 216 67.0
e 216 220 1.0
e 221 224 71.0
e 228 268 34.0
e 228 260 17.0
e 228 229 65.0
e 230 263 2.0
e 230 210 2.0
e 231 290 4.0
e 231 230 2.0
e 232 270 6.0
e 232 231 6.0
e 233 234 1.0
e 233 232 4.0
e 239 244 2.0
e 239 233 5.0
e 245 246 47.0
e 246 284 45.0
e 246 249 53.0
e 249 271 21.0
e 249 250 39.0
e 251 252 1.0
e 251 239 1.0
e 253 254 73.0
e 253 255 91.0
e 255 256 52.0
e 255 257 13.0
e 258 259 1.0
e 258 251 3.0
e 261 262 91.0
e 264 272 21.0
e 264 258 4.0
e 273 313 1.0
e 273 264 3.0
e 274 275 1.0
e 274 273 2.0
e 276 277 4.0
e 276 274 2.0
e 278 280 78.0
e 280 281 43.0
e 280 284 39.0
e 285 291 64.0
e 291 292 39.0
e 291 293 19.0
e 292 293 66.0
e 297 299 7.0
e 297 276 1.0
e 300 301 1.0
e 300 297 1.0
e 302 304 3.0
e 302 300 1.0
e 305 306 30.0
e 305 302 17.0
e 306 308 47.0
e 306 309 15.0
e 314 315 44.0
e 315 318 50.0
e 315 319 15.0
